c File:  c-fat200-2.clq
c
c Source: Panos Pardalos pardalos@math.ufl.edu
c
c Reference: P. Berman and A. Pelc, Distributed Fault Diagnosis for
c            Multiprocessor Systems, Proceedings of the 20th Annual
c            International Symposium on Fault-Tolerant Computing
c            Newcastle, UK, 340-346 (1990)
c
p edge 200 3235
e 2 1
e 3 2
e 4 3
e 5 4
e 6 5
e 7 6
e 8 7
e 9 8
e 10 9
e 11 10
e 12 11
e 13 12
e 14 13
e 15 14
e 16 15
e 17 16
e 18 1
e 18 17
e 19 1
e 19 2
e 19 18
e 20 1
e 20 2
e 20 3
e 20 19
e 21 2
e 21 3
e 21 4
e 21 20
e 22 3
e 22 4
e 22 5
e 22 21
e 23 4
e 23 5
e 23 6
e 23 22
e 24 5
e 24 6
e 24 7
e 24 23
e 25 6
e 25 7
e 25 8
e 25 24
e 26 7
e 26 8
e 26 9
e 26 25
e 27 8
e 27 9
e 27 10
e 27 26
e 28 9
e 28 10
e 28 11
e 28 27
e 29 10
e 29 11
e 29 12
e 29 28
e 30 11
e 30 12
e 30 13
e 30 29
e 31 12
e 31 13
e 31 14
e 31 30
e 32 13
e 32 14
e 32 15
e 32 31
e 33 14
e 33 15
e 33 16
e 33 32
e 34 15
e 34 16
e 34 17
e 34 33
e 35 16
e 35 17
e 35 18
e 35 34
e 36 1
e 36 17
e 36 18
e 36 19
e 36 35
e 37 1
e 37 2
e 37 18
e 37 19
e 37 20
e 37 36
e 38 1
e 38 2
e 38 3
e 38 19
e 38 20
e 38 21
e 38 37
e 39 2
e 39 3
e 39 4
e 39 20
e 39 21
e 39 22
e 39 38
e 40 3
e 40 4
e 40 5
e 40 21
e 40 22
e 40 23
e 40 39
e 41 4
e 41 5
e 41 6
e 41 22
e 41 23
e 41 24
e 41 40
e 42 5
e 42 6
e 42 7
e 42 23
e 42 24
e 42 25
e 42 41
e 43 6
e 43 7
e 43 8
e 43 24
e 43 25
e 43 26
e 43 42
e 44 7
e 44 8
e 44 9
e 44 25
e 44 26
e 44 27
e 44 43
e 45 8
e 45 9
e 45 10
e 45 26
e 45 27
e 45 28
e 45 44
e 46 9
e 46 10
e 46 11
e 46 27
e 46 28
e 46 29
e 46 45
e 47 10
e 47 11
e 47 12
e 47 28
e 47 29
e 47 30
e 47 46
e 48 11
e 48 12
e 48 13
e 48 29
e 48 30
e 48 31
e 48 47
e 49 12
e 49 13
e 49 14
e 49 30
e 49 31
e 49 32
e 49 48
e 50 13
e 50 14
e 50 15
e 50 31
e 50 32
e 50 33
e 50 49
e 51 14
e 51 15
e 51 16
e 51 32
e 51 33
e 51 34
e 51 50
e 52 15
e 52 16
e 52 17
e 52 33
e 52 34
e 52 35
e 52 51
e 53 16
e 53 17
e 53 18
e 53 34
e 53 35
e 53 36
e 53 52
e 54 1
e 54 17
e 54 18
e 54 19
e 54 35
e 54 36
e 54 37
e 54 53
e 55 1
e 55 2
e 55 18
e 55 19
e 55 20
e 55 36
e 55 37
e 55 38
e 55 54
e 56 1
e 56 2
e 56 3
e 56 19
e 56 20
e 56 21
e 56 37
e 56 38
e 56 39
e 56 55
e 57 2
e 57 3
e 57 4
e 57 20
e 57 21
e 57 22
e 57 38
e 57 39
e 57 40
e 57 56
e 58 3
e 58 4
e 58 5
e 58 21
e 58 22
e 58 23
e 58 39
e 58 40
e 58 41
e 58 57
e 59 4
e 59 5
e 59 6
e 59 22
e 59 23
e 59 24
e 59 40
e 59 41
e 59 42
e 59 58
e 60 5
e 60 6
e 60 7
e 60 23
e 60 24
e 60 25
e 60 41
e 60 42
e 60 43
e 60 59
e 61 6
e 61 7
e 61 8
e 61 24
e 61 25
e 61 26
e 61 42
e 61 43
e 61 44
e 61 60
e 62 7
e 62 8
e 62 9
e 62 25
e 62 26
e 62 27
e 62 43
e 62 44
e 62 45
e 62 61
e 63 8
e 63 9
e 63 10
e 63 26
e 63 27
e 63 28
e 63 44
e 63 45
e 63 46
e 63 62
e 64 9
e 64 10
e 64 11
e 64 27
e 64 28
e 64 29
e 64 45
e 64 46
e 64 47
e 64 63
e 65 10
e 65 11
e 65 12
e 65 28
e 65 29
e 65 30
e 65 46
e 65 47
e 65 48
e 65 64
e 66 11
e 66 12
e 66 13
e 66 29
e 66 30
e 66 31
e 66 47
e 66 48
e 66 49
e 66 65
e 67 12
e 67 13
e 67 14
e 67 30
e 67 31
e 67 32
e 67 48
e 67 49
e 67 50
e 67 66
e 68 13
e 68 14
e 68 15
e 68 31
e 68 32
e 68 33
e 68 49
e 68 50
e 68 51
e 68 67
e 69 14
e 69 15
e 69 16
e 69 32
e 69 33
e 69 34
e 69 50
e 69 51
e 69 52
e 69 68
e 70 15
e 70 16
e 70 17
e 70 33
e 70 34
e 70 35
e 70 51
e 70 52
e 70 53
e 70 69
e 71 16
e 71 17
e 71 18
e 71 34
e 71 35
e 71 36
e 71 52
e 71 53
e 71 54
e 71 70
e 72 1
e 72 17
e 72 18
e 72 19
e 72 35
e 72 36
e 72 37
e 72 53
e 72 54
e 72 55
e 72 71
e 73 1
e 73 2
e 73 18
e 73 19
e 73 20
e 73 36
e 73 37
e 73 38
e 73 54
e 73 55
e 73 56
e 73 72
e 74 1
e 74 2
e 74 3
e 74 19
e 74 20
e 74 21
e 74 37
e 74 38
e 74 39
e 74 55
e 74 56
e 74 57
e 74 73
e 75 2
e 75 3
e 75 4
e 75 20
e 75 21
e 75 22
e 75 38
e 75 39
e 75 40
e 75 56
e 75 57
e 75 58
e 75 74
e 76 3
e 76 4
e 76 5
e 76 21
e 76 22
e 76 23
e 76 39
e 76 40
e 76 41
e 76 57
e 76 58
e 76 59
e 76 75
e 77 4
e 77 5
e 77 6
e 77 22
e 77 23
e 77 24
e 77 40
e 77 41
e 77 42
e 77 58
e 77 59
e 77 60
e 77 76
e 78 5
e 78 6
e 78 7
e 78 23
e 78 24
e 78 25
e 78 41
e 78 42
e 78 43
e 78 59
e 78 60
e 78 61
e 78 77
e 79 6
e 79 7
e 79 8
e 79 24
e 79 25
e 79 26
e 79 42
e 79 43
e 79 44
e 79 60
e 79 61
e 79 62
e 79 78
e 80 7
e 80 8
e 80 9
e 80 25
e 80 26
e 80 27
e 80 43
e 80 44
e 80 45
e 80 61
e 80 62
e 80 63
e 80 79
e 81 8
e 81 9
e 81 10
e 81 26
e 81 27
e 81 28
e 81 44
e 81 45
e 81 46
e 81 62
e 81 63
e 81 64
e 81 80
e 82 9
e 82 10
e 82 11
e 82 27
e 82 28
e 82 29
e 82 45
e 82 46
e 82 47
e 82 63
e 82 64
e 82 65
e 82 81
e 83 10
e 83 11
e 83 12
e 83 28
e 83 29
e 83 30
e 83 46
e 83 47
e 83 48
e 83 64
e 83 65
e 83 66
e 83 82
e 84 11
e 84 12
e 84 13
e 84 29
e 84 30
e 84 31
e 84 47
e 84 48
e 84 49
e 84 65
e 84 66
e 84 67
e 84 83
e 85 12
e 85 13
e 85 14
e 85 30
e 85 31
e 85 32
e 85 48
e 85 49
e 85 50
e 85 66
e 85 67
e 85 68
e 85 84
e 86 13
e 86 14
e 86 15
e 86 31
e 86 32
e 86 33
e 86 49
e 86 50
e 86 51
e 86 67
e 86 68
e 86 69
e 86 85
e 87 14
e 87 15
e 87 16
e 87 32
e 87 33
e 87 34
e 87 50
e 87 51
e 87 52
e 87 68
e 87 69
e 87 70
e 87 86
e 88 15
e 88 16
e 88 17
e 88 33
e 88 34
e 88 35
e 88 51
e 88 52
e 88 53
e 88 69
e 88 70
e 88 71
e 88 87
e 89 16
e 89 17
e 89 18
e 89 34
e 89 35
e 89 36
e 89 52
e 89 53
e 89 54
e 89 70
e 89 71
e 89 72
e 89 88
e 90 1
e 90 17
e 90 18
e 90 19
e 90 35
e 90 36
e 90 37
e 90 53
e 90 54
e 90 55
e 90 71
e 90 72
e 90 73
e 90 89
e 91 1
e 91 2
e 91 18
e 91 19
e 91 20
e 91 36
e 91 37
e 91 38
e 91 54
e 91 55
e 91 56
e 91 72
e 91 73
e 91 74
e 91 90
e 92 1
e 92 2
e 92 3
e 92 19
e 92 20
e 92 21
e 92 37
e 92 38
e 92 39
e 92 55
e 92 56
e 92 57
e 92 73
e 92 74
e 92 75
e 92 91
e 93 2
e 93 3
e 93 4
e 93 20
e 93 21
e 93 22
e 93 38
e 93 39
e 93 40
e 93 56
e 93 57
e 93 58
e 93 74
e 93 75
e 93 76
e 93 92
e 94 3
e 94 4
e 94 5
e 94 21
e 94 22
e 94 23
e 94 39
e 94 40
e 94 41
e 94 57
e 94 58
e 94 59
e 94 75
e 94 76
e 94 77
e 94 93
e 95 4
e 95 5
e 95 6
e 95 22
e 95 23
e 95 24
e 95 40
e 95 41
e 95 42
e 95 58
e 95 59
e 95 60
e 95 76
e 95 77
e 95 78
e 95 94
e 96 5
e 96 6
e 96 7
e 96 23
e 96 24
e 96 25
e 96 41
e 96 42
e 96 43
e 96 59
e 96 60
e 96 61
e 96 77
e 96 78
e 96 79
e 96 95
e 97 6
e 97 7
e 97 8
e 97 24
e 97 25
e 97 26
e 97 42
e 97 43
e 97 44
e 97 60
e 97 61
e 97 62
e 97 78
e 97 79
e 97 80
e 97 96
e 98 7
e 98 8
e 98 9
e 98 25
e 98 26
e 98 27
e 98 43
e 98 44
e 98 45
e 98 61
e 98 62
e 98 63
e 98 79
e 98 80
e 98 81
e 98 97
e 99 8
e 99 9
e 99 10
e 99 26
e 99 27
e 99 28
e 99 44
e 99 45
e 99 46
e 99 62
e 99 63
e 99 64
e 99 80
e 99 81
e 99 82
e 99 98
e 100 9
e 100 10
e 100 11
e 100 27
e 100 28
e 100 29
e 100 45
e 100 46
e 100 47
e 100 63
e 100 64
e 100 65
e 100 81
e 100 82
e 100 83
e 100 99
e 101 10
e 101 11
e 101 12
e 101 28
e 101 29
e 101 30
e 101 46
e 101 47
e 101 48
e 101 64
e 101 65
e 101 66
e 101 82
e 101 83
e 101 84
e 101 100
e 102 11
e 102 12
e 102 13
e 102 29
e 102 30
e 102 31
e 102 47
e 102 48
e 102 49
e 102 65
e 102 66
e 102 67
e 102 83
e 102 84
e 102 85
e 102 101
e 103 12
e 103 13
e 103 14
e 103 30
e 103 31
e 103 32
e 103 48
e 103 49
e 103 50
e 103 66
e 103 67
e 103 68
e 103 84
e 103 85
e 103 86
e 103 102
e 104 13
e 104 14
e 104 15
e 104 31
e 104 32
e 104 33
e 104 49
e 104 50
e 104 51
e 104 67
e 104 68
e 104 69
e 104 85
e 104 86
e 104 87
e 104 103
e 105 14
e 105 15
e 105 16
e 105 32
e 105 33
e 105 34
e 105 50
e 105 51
e 105 52
e 105 68
e 105 69
e 105 70
e 105 86
e 105 87
e 105 88
e 105 104
e 106 15
e 106 16
e 106 17
e 106 33
e 106 34
e 106 35
e 106 51
e 106 52
e 106 53
e 106 69
e 106 70
e 106 71
e 106 87
e 106 88
e 106 89
e 106 105
e 107 16
e 107 17
e 107 18
e 107 34
e 107 35
e 107 36
e 107 52
e 107 53
e 107 54
e 107 70
e 107 71
e 107 72
e 107 88
e 107 89
e 107 90
e 107 106
e 108 1
e 108 17
e 108 18
e 108 19
e 108 35
e 108 36
e 108 37
e 108 53
e 108 54
e 108 55
e 108 71
e 108 72
e 108 73
e 108 89
e 108 90
e 108 91
e 108 107
e 109 1
e 109 2
e 109 18
e 109 19
e 109 20
e 109 36
e 109 37
e 109 38
e 109 54
e 109 55
e 109 56
e 109 72
e 109 73
e 109 74
e 109 90
e 109 91
e 109 92
e 109 108
e 110 1
e 110 2
e 110 3
e 110 19
e 110 20
e 110 21
e 110 37
e 110 38
e 110 39
e 110 55
e 110 56
e 110 57
e 110 73
e 110 74
e 110 75
e 110 91
e 110 92
e 110 93
e 110 109
e 111 2
e 111 3
e 111 4
e 111 20
e 111 21
e 111 22
e 111 38
e 111 39
e 111 40
e 111 56
e 111 57
e 111 58
e 111 74
e 111 75
e 111 76
e 111 92
e 111 93
e 111 94
e 111 110
e 112 3
e 112 4
e 112 5
e 112 21
e 112 22
e 112 23
e 112 39
e 112 40
e 112 41
e 112 57
e 112 58
e 112 59
e 112 75
e 112 76
e 112 77
e 112 93
e 112 94
e 112 95
e 112 111
e 113 4
e 113 5
e 113 6
e 113 22
e 113 23
e 113 24
e 113 40
e 113 41
e 113 42
e 113 58
e 113 59
e 113 60
e 113 76
e 113 77
e 113 78
e 113 94
e 113 95
e 113 96
e 113 112
e 114 5
e 114 6
e 114 7
e 114 23
e 114 24
e 114 25
e 114 41
e 114 42
e 114 43
e 114 59
e 114 60
e 114 61
e 114 77
e 114 78
e 114 79
e 114 95
e 114 96
e 114 97
e 114 113
e 115 6
e 115 7
e 115 8
e 115 24
e 115 25
e 115 26
e 115 42
e 115 43
e 115 44
e 115 60
e 115 61
e 115 62
e 115 78
e 115 79
e 115 80
e 115 96
e 115 97
e 115 98
e 115 114
e 116 7
e 116 8
e 116 9
e 116 25
e 116 26
e 116 27
e 116 43
e 116 44
e 116 45
e 116 61
e 116 62
e 116 63
e 116 79
e 116 80
e 116 81
e 116 97
e 116 98
e 116 99
e 116 115
e 117 8
e 117 9
e 117 10
e 117 26
e 117 27
e 117 28
e 117 44
e 117 45
e 117 46
e 117 62
e 117 63
e 117 64
e 117 80
e 117 81
e 117 82
e 117 98
e 117 99
e 117 100
e 117 116
e 118 9
e 118 10
e 118 11
e 118 27
e 118 28
e 118 29
e 118 45
e 118 46
e 118 47
e 118 63
e 118 64
e 118 65
e 118 81
e 118 82
e 118 83
e 118 99
e 118 100
e 118 101
e 118 117
e 119 10
e 119 11
e 119 12
e 119 28
e 119 29
e 119 30
e 119 46
e 119 47
e 119 48
e 119 64
e 119 65
e 119 66
e 119 82
e 119 83
e 119 84
e 119 100
e 119 101
e 119 102
e 119 118
e 120 11
e 120 12
e 120 13
e 120 29
e 120 30
e 120 31
e 120 47
e 120 48
e 120 49
e 120 65
e 120 66
e 120 67
e 120 83
e 120 84
e 120 85
e 120 101
e 120 102
e 120 103
e 120 119
e 121 12
e 121 13
e 121 14
e 121 30
e 121 31
e 121 32
e 121 48
e 121 49
e 121 50
e 121 66
e 121 67
e 121 68
e 121 84
e 121 85
e 121 86
e 121 102
e 121 103
e 121 104
e 121 120
e 122 13
e 122 14
e 122 15
e 122 31
e 122 32
e 122 33
e 122 49
e 122 50
e 122 51
e 122 67
e 122 68
e 122 69
e 122 85
e 122 86
e 122 87
e 122 103
e 122 104
e 122 105
e 122 121
e 123 14
e 123 15
e 123 16
e 123 32
e 123 33
e 123 34
e 123 50
e 123 51
e 123 52
e 123 68
e 123 69
e 123 70
e 123 86
e 123 87
e 123 88
e 123 104
e 123 105
e 123 106
e 123 122
e 124 15
e 124 16
e 124 17
e 124 33
e 124 34
e 124 35
e 124 51
e 124 52
e 124 53
e 124 69
e 124 70
e 124 71
e 124 87
e 124 88
e 124 89
e 124 105
e 124 106
e 124 107
e 124 123
e 125 16
e 125 17
e 125 18
e 125 34
e 125 35
e 125 36
e 125 52
e 125 53
e 125 54
e 125 70
e 125 71
e 125 72
e 125 88
e 125 89
e 125 90
e 125 106
e 125 107
e 125 108
e 125 124
e 126 1
e 126 17
e 126 18
e 126 19
e 126 35
e 126 36
e 126 37
e 126 53
e 126 54
e 126 55
e 126 71
e 126 72
e 126 73
e 126 89
e 126 90
e 126 91
e 126 107
e 126 108
e 126 109
e 126 125
e 127 1
e 127 2
e 127 18
e 127 19
e 127 20
e 127 36
e 127 37
e 127 38
e 127 54
e 127 55
e 127 56
e 127 72
e 127 73
e 127 74
e 127 90
e 127 91
e 127 92
e 127 108
e 127 109
e 127 110
e 127 126
e 128 1
e 128 2
e 128 3
e 128 19
e 128 20
e 128 21
e 128 37
e 128 38
e 128 39
e 128 55
e 128 56
e 128 57
e 128 73
e 128 74
e 128 75
e 128 91
e 128 92
e 128 93
e 128 109
e 128 110
e 128 111
e 128 127
e 129 2
e 129 3
e 129 4
e 129 20
e 129 21
e 129 22
e 129 38
e 129 39
e 129 40
e 129 56
e 129 57
e 129 58
e 129 74
e 129 75
e 129 76
e 129 92
e 129 93
e 129 94
e 129 110
e 129 111
e 129 112
e 129 128
e 130 3
e 130 4
e 130 5
e 130 21
e 130 22
e 130 23
e 130 39
e 130 40
e 130 41
e 130 57
e 130 58
e 130 59
e 130 75
e 130 76
e 130 77
e 130 93
e 130 94
e 130 95
e 130 111
e 130 112
e 130 113
e 130 129
e 131 4
e 131 5
e 131 6
e 131 22
e 131 23
e 131 24
e 131 40
e 131 41
e 131 42
e 131 58
e 131 59
e 131 60
e 131 76
e 131 77
e 131 78
e 131 94
e 131 95
e 131 96
e 131 112
e 131 113
e 131 114
e 131 130
e 132 5
e 132 6
e 132 7
e 132 23
e 132 24
e 132 25
e 132 41
e 132 42
e 132 43
e 132 59
e 132 60
e 132 61
e 132 77
e 132 78
e 132 79
e 132 95
e 132 96
e 132 97
e 132 113
e 132 114
e 132 115
e 132 131
e 133 6
e 133 7
e 133 8
e 133 24
e 133 25
e 133 26
e 133 42
e 133 43
e 133 44
e 133 60
e 133 61
e 133 62
e 133 78
e 133 79
e 133 80
e 133 96
e 133 97
e 133 98
e 133 114
e 133 115
e 133 116
e 133 132
e 134 7
e 134 8
e 134 9
e 134 25
e 134 26
e 134 27
e 134 43
e 134 44
e 134 45
e 134 61
e 134 62
e 134 63
e 134 79
e 134 80
e 134 81
e 134 97
e 134 98
e 134 99
e 134 115
e 134 116
e 134 117
e 134 133
e 135 8
e 135 9
e 135 10
e 135 26
e 135 27
e 135 28
e 135 44
e 135 45
e 135 46
e 135 62
e 135 63
e 135 64
e 135 80
e 135 81
e 135 82
e 135 98
e 135 99
e 135 100
e 135 116
e 135 117
e 135 118
e 135 134
e 136 9
e 136 10
e 136 11
e 136 27
e 136 28
e 136 29
e 136 45
e 136 46
e 136 47
e 136 63
e 136 64
e 136 65
e 136 81
e 136 82
e 136 83
e 136 99
e 136 100
e 136 101
e 136 117
e 136 118
e 136 119
e 136 135
e 137 10
e 137 11
e 137 12
e 137 28
e 137 29
e 137 30
e 137 46
e 137 47
e 137 48
e 137 64
e 137 65
e 137 66
e 137 82
e 137 83
e 137 84
e 137 100
e 137 101
e 137 102
e 137 118
e 137 119
e 137 120
e 137 136
e 138 11
e 138 12
e 138 13
e 138 29
e 138 30
e 138 31
e 138 47
e 138 48
e 138 49
e 138 65
e 138 66
e 138 67
e 138 83
e 138 84
e 138 85
e 138 101
e 138 102
e 138 103
e 138 119
e 138 120
e 138 121
e 138 137
e 139 12
e 139 13
e 139 14
e 139 30
e 139 31
e 139 32
e 139 48
e 139 49
e 139 50
e 139 66
e 139 67
e 139 68
e 139 84
e 139 85
e 139 86
e 139 102
e 139 103
e 139 104
e 139 120
e 139 121
e 139 122
e 139 138
e 140 13
e 140 14
e 140 15
e 140 31
e 140 32
e 140 33
e 140 49
e 140 50
e 140 51
e 140 67
e 140 68
e 140 69
e 140 85
e 140 86
e 140 87
e 140 103
e 140 104
e 140 105
e 140 121
e 140 122
e 140 123
e 140 139
e 141 14
e 141 15
e 141 16
e 141 32
e 141 33
e 141 34
e 141 50
e 141 51
e 141 52
e 141 68
e 141 69
e 141 70
e 141 86
e 141 87
e 141 88
e 141 104
e 141 105
e 141 106
e 141 122
e 141 123
e 141 124
e 141 140
e 142 15
e 142 16
e 142 17
e 142 33
e 142 34
e 142 35
e 142 51
e 142 52
e 142 53
e 142 69
e 142 70
e 142 71
e 142 87
e 142 88
e 142 89
e 142 105
e 142 106
e 142 107
e 142 123
e 142 124
e 142 125
e 142 141
e 143 16
e 143 17
e 143 18
e 143 34
e 143 35
e 143 36
e 143 52
e 143 53
e 143 54
e 143 70
e 143 71
e 143 72
e 143 88
e 143 89
e 143 90
e 143 106
e 143 107
e 143 108
e 143 124
e 143 125
e 143 126
e 143 142
e 144 1
e 144 17
e 144 18
e 144 19
e 144 35
e 144 36
e 144 37
e 144 53
e 144 54
e 144 55
e 144 71
e 144 72
e 144 73
e 144 89
e 144 90
e 144 91
e 144 107
e 144 108
e 144 109
e 144 125
e 144 126
e 144 127
e 144 143
e 145 1
e 145 2
e 145 18
e 145 19
e 145 20
e 145 36
e 145 37
e 145 38
e 145 54
e 145 55
e 145 56
e 145 72
e 145 73
e 145 74
e 145 90
e 145 91
e 145 92
e 145 108
e 145 109
e 145 110
e 145 126
e 145 127
e 145 128
e 145 144
e 146 1
e 146 2
e 146 3
e 146 19
e 146 20
e 146 21
e 146 37
e 146 38
e 146 39
e 146 55
e 146 56
e 146 57
e 146 73
e 146 74
e 146 75
e 146 91
e 146 92
e 146 93
e 146 109
e 146 110
e 146 111
e 146 127
e 146 128
e 146 129
e 146 145
e 147 2
e 147 3
e 147 4
e 147 20
e 147 21
e 147 22
e 147 38
e 147 39
e 147 40
e 147 56
e 147 57
e 147 58
e 147 74
e 147 75
e 147 76
e 147 92
e 147 93
e 147 94
e 147 110
e 147 111
e 147 112
e 147 128
e 147 129
e 147 130
e 147 146
e 148 3
e 148 4
e 148 5
e 148 21
e 148 22
e 148 23
e 148 39
e 148 40
e 148 41
e 148 57
e 148 58
e 148 59
e 148 75
e 148 76
e 148 77
e 148 93
e 148 94
e 148 95
e 148 111
e 148 112
e 148 113
e 148 129
e 148 130
e 148 131
e 148 147
e 149 4
e 149 5
e 149 6
e 149 22
e 149 23
e 149 24
e 149 40
e 149 41
e 149 42
e 149 58
e 149 59
e 149 60
e 149 76
e 149 77
e 149 78
e 149 94
e 149 95
e 149 96
e 149 112
e 149 113
e 149 114
e 149 130
e 149 131
e 149 132
e 149 148
e 150 5
e 150 6
e 150 7
e 150 23
e 150 24
e 150 25
e 150 41
e 150 42
e 150 43
e 150 59
e 150 60
e 150 61
e 150 77
e 150 78
e 150 79
e 150 95
e 150 96
e 150 97
e 150 113
e 150 114
e 150 115
e 150 131
e 150 132
e 150 133
e 150 149
e 151 6
e 151 7
e 151 8
e 151 24
e 151 25
e 151 26
e 151 42
e 151 43
e 151 44
e 151 60
e 151 61
e 151 62
e 151 78
e 151 79
e 151 80
e 151 96
e 151 97
e 151 98
e 151 114
e 151 115
e 151 116
e 151 132
e 151 133
e 151 134
e 151 150
e 152 7
e 152 8
e 152 9
e 152 25
e 152 26
e 152 27
e 152 43
e 152 44
e 152 45
e 152 61
e 152 62
e 152 63
e 152 79
e 152 80
e 152 81
e 152 97
e 152 98
e 152 99
e 152 115
e 152 116
e 152 117
e 152 133
e 152 134
e 152 135
e 152 151
e 153 8
e 153 9
e 153 10
e 153 26
e 153 27
e 153 28
e 153 44
e 153 45
e 153 46
e 153 62
e 153 63
e 153 64
e 153 80
e 153 81
e 153 82
e 153 98
e 153 99
e 153 100
e 153 116
e 153 117
e 153 118
e 153 134
e 153 135
e 153 136
e 153 152
e 154 9
e 154 10
e 154 11
e 154 27
e 154 28
e 154 29
e 154 45
e 154 46
e 154 47
e 154 63
e 154 64
e 154 65
e 154 81
e 154 82
e 154 83
e 154 99
e 154 100
e 154 101
e 154 117
e 154 118
e 154 119
e 154 135
e 154 136
e 154 137
e 154 153
e 155 10
e 155 11
e 155 12
e 155 28
e 155 29
e 155 30
e 155 46
e 155 47
e 155 48
e 155 64
e 155 65
e 155 66
e 155 82
e 155 83
e 155 84
e 155 100
e 155 101
e 155 102
e 155 118
e 155 119
e 155 120
e 155 136
e 155 137
e 155 138
e 155 154
e 156 11
e 156 12
e 156 13
e 156 29
e 156 30
e 156 31
e 156 47
e 156 48
e 156 49
e 156 65
e 156 66
e 156 67
e 156 83
e 156 84
e 156 85
e 156 101
e 156 102
e 156 103
e 156 119
e 156 120
e 156 121
e 156 137
e 156 138
e 156 139
e 156 155
e 157 12
e 157 13
e 157 14
e 157 30
e 157 31
e 157 32
e 157 48
e 157 49
e 157 50
e 157 66
e 157 67
e 157 68
e 157 84
e 157 85
e 157 86
e 157 102
e 157 103
e 157 104
e 157 120
e 157 121
e 157 122
e 157 138
e 157 139
e 157 140
e 157 156
e 158 13
e 158 14
e 158 15
e 158 31
e 158 32
e 158 33
e 158 49
e 158 50
e 158 51
e 158 67
e 158 68
e 158 69
e 158 85
e 158 86
e 158 87
e 158 103
e 158 104
e 158 105
e 158 121
e 158 122
e 158 123
e 158 139
e 158 140
e 158 141
e 158 157
e 159 14
e 159 15
e 159 16
e 159 32
e 159 33
e 159 34
e 159 50
e 159 51
e 159 52
e 159 68
e 159 69
e 159 70
e 159 86
e 159 87
e 159 88
e 159 104
e 159 105
e 159 106
e 159 122
e 159 123
e 159 124
e 159 140
e 159 141
e 159 142
e 159 158
e 160 15
e 160 16
e 160 17
e 160 33
e 160 34
e 160 35
e 160 51
e 160 52
e 160 53
e 160 69
e 160 70
e 160 71
e 160 87
e 160 88
e 160 89
e 160 105
e 160 106
e 160 107
e 160 123
e 160 124
e 160 125
e 160 141
e 160 142
e 160 143
e 160 159
e 161 16
e 161 17
e 161 18
e 161 34
e 161 35
e 161 36
e 161 52
e 161 53
e 161 54
e 161 70
e 161 71
e 161 72
e 161 88
e 161 89
e 161 90
e 161 106
e 161 107
e 161 108
e 161 124
e 161 125
e 161 126
e 161 142
e 161 143
e 161 144
e 161 160
e 162 1
e 162 17
e 162 18
e 162 19
e 162 35
e 162 36
e 162 37
e 162 53
e 162 54
e 162 55
e 162 71
e 162 72
e 162 73
e 162 89
e 162 90
e 162 91
e 162 107
e 162 108
e 162 109
e 162 125
e 162 126
e 162 127
e 162 143
e 162 144
e 162 145
e 162 161
e 163 1
e 163 2
e 163 18
e 163 19
e 163 20
e 163 36
e 163 37
e 163 38
e 163 54
e 163 55
e 163 56
e 163 72
e 163 73
e 163 74
e 163 90
e 163 91
e 163 92
e 163 108
e 163 109
e 163 110
e 163 126
e 163 127
e 163 128
e 163 144
e 163 145
e 163 146
e 163 162
e 164 1
e 164 2
e 164 3
e 164 19
e 164 20
e 164 21
e 164 37
e 164 38
e 164 39
e 164 55
e 164 56
e 164 57
e 164 73
e 164 74
e 164 75
e 164 91
e 164 92
e 164 93
e 164 109
e 164 110
e 164 111
e 164 127
e 164 128
e 164 129
e 164 145
e 164 146
e 164 147
e 164 163
e 165 2
e 165 3
e 165 4
e 165 20
e 165 21
e 165 22
e 165 38
e 165 39
e 165 40
e 165 56
e 165 57
e 165 58
e 165 74
e 165 75
e 165 76
e 165 92
e 165 93
e 165 94
e 165 110
e 165 111
e 165 112
e 165 128
e 165 129
e 165 130
e 165 146
e 165 147
e 165 148
e 165 164
e 166 3
e 166 4
e 166 5
e 166 21
e 166 22
e 166 23
e 166 39
e 166 40
e 166 41
e 166 57
e 166 58
e 166 59
e 166 75
e 166 76
e 166 77
e 166 93
e 166 94
e 166 95
e 166 111
e 166 112
e 166 113
e 166 129
e 166 130
e 166 131
e 166 147
e 166 148
e 166 149
e 166 165
e 167 4
e 167 5
e 167 6
e 167 22
e 167 23
e 167 24
e 167 40
e 167 41
e 167 42
e 167 58
e 167 59
e 167 60
e 167 76
e 167 77
e 167 78
e 167 94
e 167 95
e 167 96
e 167 112
e 167 113
e 167 114
e 167 130
e 167 131
e 167 132
e 167 148
e 167 149
e 167 150
e 167 166
e 168 5
e 168 6
e 168 7
e 168 23
e 168 24
e 168 25
e 168 41
e 168 42
e 168 43
e 168 59
e 168 60
e 168 61
e 168 77
e 168 78
e 168 79
e 168 95
e 168 96
e 168 97
e 168 113
e 168 114
e 168 115
e 168 131
e 168 132
e 168 133
e 168 149
e 168 150
e 168 151
e 168 167
e 169 6
e 169 7
e 169 8
e 169 24
e 169 25
e 169 26
e 169 42
e 169 43
e 169 44
e 169 60
e 169 61
e 169 62
e 169 78
e 169 79
e 169 80
e 169 96
e 169 97
e 169 98
e 169 114
e 169 115
e 169 116
e 169 132
e 169 133
e 169 134
e 169 150
e 169 151
e 169 152
e 169 168
e 170 7
e 170 8
e 170 9
e 170 25
e 170 26
e 170 27
e 170 43
e 170 44
e 170 45
e 170 61
e 170 62
e 170 63
e 170 79
e 170 80
e 170 81
e 170 97
e 170 98
e 170 99
e 170 115
e 170 116
e 170 117
e 170 133
e 170 134
e 170 135
e 170 151
e 170 152
e 170 153
e 170 169
e 171 8
e 171 9
e 171 10
e 171 26
e 171 27
e 171 28
e 171 44
e 171 45
e 171 46
e 171 62
e 171 63
e 171 64
e 171 80
e 171 81
e 171 82
e 171 98
e 171 99
e 171 100
e 171 116
e 171 117
e 171 118
e 171 134
e 171 135
e 171 136
e 171 152
e 171 153
e 171 154
e 171 170
e 172 9
e 172 10
e 172 11
e 172 27
e 172 28
e 172 29
e 172 45
e 172 46
e 172 47
e 172 63
e 172 64
e 172 65
e 172 81
e 172 82
e 172 83
e 172 99
e 172 100
e 172 101
e 172 117
e 172 118
e 172 119
e 172 135
e 172 136
e 172 137
e 172 153
e 172 154
e 172 155
e 172 171
e 173 10
e 173 11
e 173 12
e 173 28
e 173 29
e 173 30
e 173 46
e 173 47
e 173 48
e 173 64
e 173 65
e 173 66
e 173 82
e 173 83
e 173 84
e 173 100
e 173 101
e 173 102
e 173 118
e 173 119
e 173 120
e 173 136
e 173 137
e 173 138
e 173 154
e 173 155
e 173 156
e 173 172
e 174 11
e 174 12
e 174 13
e 174 29
e 174 30
e 174 31
e 174 47
e 174 48
e 174 49
e 174 65
e 174 66
e 174 67
e 174 83
e 174 84
e 174 85
e 174 101
e 174 102
e 174 103
e 174 119
e 174 120
e 174 121
e 174 137
e 174 138
e 174 139
e 174 155
e 174 156
e 174 157
e 174 173
e 175 12
e 175 13
e 175 14
e 175 30
e 175 31
e 175 32
e 175 48
e 175 49
e 175 50
e 175 66
e 175 67
e 175 68
e 175 84
e 175 85
e 175 86
e 175 102
e 175 103
e 175 104
e 175 120
e 175 121
e 175 122
e 175 138
e 175 139
e 175 140
e 175 156
e 175 157
e 175 158
e 175 174
e 176 13
e 176 14
e 176 15
e 176 31
e 176 32
e 176 33
e 176 49
e 176 50
e 176 51
e 176 67
e 176 68
e 176 69
e 176 85
e 176 86
e 176 87
e 176 103
e 176 104
e 176 105
e 176 121
e 176 122
e 176 123
e 176 139
e 176 140
e 176 141
e 176 157
e 176 158
e 176 159
e 176 175
e 177 14
e 177 15
e 177 16
e 177 32
e 177 33
e 177 34
e 177 50
e 177 51
e 177 52
e 177 68
e 177 69
e 177 70
e 177 86
e 177 87
e 177 88
e 177 104
e 177 105
e 177 106
e 177 122
e 177 123
e 177 124
e 177 140
e 177 141
e 177 142
e 177 158
e 177 159
e 177 160
e 177 176
e 178 15
e 178 16
e 178 17
e 178 33
e 178 34
e 178 35
e 178 51
e 178 52
e 178 53
e 178 69
e 178 70
e 178 71
e 178 87
e 178 88
e 178 89
e 178 105
e 178 106
e 178 107
e 178 123
e 178 124
e 178 125
e 178 141
e 178 142
e 178 143
e 178 159
e 178 160
e 178 161
e 178 177
e 179 16
e 179 17
e 179 18
e 179 34
e 179 35
e 179 36
e 179 52
e 179 53
e 179 54
e 179 70
e 179 71
e 179 72
e 179 88
e 179 89
e 179 90
e 179 106
e 179 107
e 179 108
e 179 124
e 179 125
e 179 126
e 179 142
e 179 143
e 179 144
e 179 160
e 179 161
e 179 162
e 179 178
e 180 1
e 180 17
e 180 18
e 180 19
e 180 35
e 180 36
e 180 37
e 180 53
e 180 54
e 180 55
e 180 71
e 180 72
e 180 73
e 180 89
e 180 90
e 180 91
e 180 107
e 180 108
e 180 109
e 180 125
e 180 126
e 180 127
e 180 143
e 180 144
e 180 145
e 180 161
e 180 162
e 180 163
e 180 179
e 181 1
e 181 2
e 181 18
e 181 19
e 181 20
e 181 36
e 181 37
e 181 38
e 181 54
e 181 55
e 181 56
e 181 72
e 181 73
e 181 74
e 181 90
e 181 91
e 181 92
e 181 108
e 181 109
e 181 110
e 181 126
e 181 127
e 181 128
e 181 144
e 181 145
e 181 146
e 181 162
e 181 163
e 181 164
e 181 180
e 182 1
e 182 2
e 182 3
e 182 19
e 182 20
e 182 21
e 182 37
e 182 38
e 182 39
e 182 55
e 182 56
e 182 57
e 182 73
e 182 74
e 182 75
e 182 91
e 182 92
e 182 93
e 182 109
e 182 110
e 182 111
e 182 127
e 182 128
e 182 129
e 182 145
e 182 146
e 182 147
e 182 163
e 182 164
e 182 165
e 182 181
e 183 2
e 183 3
e 183 4
e 183 20
e 183 21
e 183 22
e 183 38
e 183 39
e 183 40
e 183 56
e 183 57
e 183 58
e 183 74
e 183 75
e 183 76
e 183 92
e 183 93
e 183 94
e 183 110
e 183 111
e 183 112
e 183 128
e 183 129
e 183 130
e 183 146
e 183 147
e 183 148
e 183 164
e 183 165
e 183 166
e 183 182
e 184 3
e 184 4
e 184 5
e 184 21
e 184 22
e 184 23
e 184 39
e 184 40
e 184 41
e 184 57
e 184 58
e 184 59
e 184 75
e 184 76
e 184 77
e 184 93
e 184 94
e 184 95
e 184 111
e 184 112
e 184 113
e 184 129
e 184 130
e 184 131
e 184 147
e 184 148
e 184 149
e 184 165
e 184 166
e 184 167
e 184 183
e 185 4
e 185 5
e 185 6
e 185 22
e 185 23
e 185 24
e 185 40
e 185 41
e 185 42
e 185 58
e 185 59
e 185 60
e 185 76
e 185 77
e 185 78
e 185 94
e 185 95
e 185 96
e 185 112
e 185 113
e 185 114
e 185 130
e 185 131
e 185 132
e 185 148
e 185 149
e 185 150
e 185 166
e 185 167
e 185 168
e 185 184
e 186 5
e 186 6
e 186 7
e 186 23
e 186 24
e 186 25
e 186 41
e 186 42
e 186 43
e 186 59
e 186 60
e 186 61
e 186 77
e 186 78
e 186 79
e 186 95
e 186 96
e 186 97
e 186 113
e 186 114
e 186 115
e 186 131
e 186 132
e 186 133
e 186 149
e 186 150
e 186 151
e 186 167
e 186 168
e 186 169
e 186 185
e 187 6
e 187 7
e 187 8
e 187 24
e 187 25
e 187 26
e 187 42
e 187 43
e 187 44
e 187 60
e 187 61
e 187 62
e 187 78
e 187 79
e 187 80
e 187 96
e 187 97
e 187 98
e 187 114
e 187 115
e 187 116
e 187 132
e 187 133
e 187 134
e 187 150
e 187 151
e 187 152
e 187 168
e 187 169
e 187 170
e 187 186
e 188 7
e 188 8
e 188 9
e 188 25
e 188 26
e 188 27
e 188 43
e 188 44
e 188 45
e 188 61
e 188 62
e 188 63
e 188 79
e 188 80
e 188 81
e 188 97
e 188 98
e 188 99
e 188 115
e 188 116
e 188 117
e 188 133
e 188 134
e 188 135
e 188 151
e 188 152
e 188 153
e 188 169
e 188 170
e 188 171
e 188 187
e 189 8
e 189 9
e 189 10
e 189 26
e 189 27
e 189 28
e 189 44
e 189 45
e 189 46
e 189 62
e 189 63
e 189 64
e 189 80
e 189 81
e 189 82
e 189 98
e 189 99
e 189 100
e 189 116
e 189 117
e 189 118
e 189 134
e 189 135
e 189 136
e 189 152
e 189 153
e 189 154
e 189 170
e 189 171
e 189 172
e 189 188
e 190 9
e 190 10
e 190 11
e 190 27
e 190 28
e 190 29
e 190 45
e 190 46
e 190 47
e 190 63
e 190 64
e 190 65
e 190 81
e 190 82
e 190 83
e 190 99
e 190 100
e 190 101
e 190 117
e 190 118
e 190 119
e 190 135
e 190 136
e 190 137
e 190 153
e 190 154
e 190 155
e 190 171
e 190 172
e 190 173
e 190 189
e 191 10
e 191 11
e 191 12
e 191 28
e 191 29
e 191 30
e 191 46
e 191 47
e 191 48
e 191 64
e 191 65
e 191 66
e 191 82
e 191 83
e 191 84
e 191 100
e 191 101
e 191 102
e 191 118
e 191 119
e 191 120
e 191 136
e 191 137
e 191 138
e 191 154
e 191 155
e 191 156
e 191 172
e 191 173
e 191 174
e 191 190
e 192 11
e 192 12
e 192 13
e 192 29
e 192 30
e 192 31
e 192 47
e 192 48
e 192 49
e 192 65
e 192 66
e 192 67
e 192 83
e 192 84
e 192 85
e 192 101
e 192 102
e 192 103
e 192 119
e 192 120
e 192 121
e 192 137
e 192 138
e 192 139
e 192 155
e 192 156
e 192 157
e 192 173
e 192 174
e 192 175
e 192 191
e 193 12
e 193 13
e 193 14
e 193 30
e 193 31
e 193 32
e 193 48
e 193 49
e 193 50
e 193 66
e 193 67
e 193 68
e 193 84
e 193 85
e 193 86
e 193 102
e 193 103
e 193 104
e 193 120
e 193 121
e 193 122
e 193 138
e 193 139
e 193 140
e 193 156
e 193 157
e 193 158
e 193 174
e 193 175
e 193 176
e 193 192
e 194 13
e 194 14
e 194 15
e 194 31
e 194 32
e 194 33
e 194 49
e 194 50
e 194 51
e 194 67
e 194 68
e 194 69
e 194 85
e 194 86
e 194 87
e 194 103
e 194 104
e 194 105
e 194 121
e 194 122
e 194 123
e 194 139
e 194 140
e 194 141
e 194 157
e 194 158
e 194 159
e 194 175
e 194 176
e 194 177
e 194 193
e 195 14
e 195 15
e 195 16
e 195 32
e 195 33
e 195 34
e 195 50
e 195 51
e 195 52
e 195 68
e 195 69
e 195 70
e 195 86
e 195 87
e 195 88
e 195 104
e 195 105
e 195 106
e 195 122
e 195 123
e 195 124
e 195 140
e 195 141
e 195 142
e 195 158
e 195 159
e 195 160
e 195 176
e 195 177
e 195 178
e 195 194
e 196 15
e 196 16
e 196 17
e 196 33
e 196 34
e 196 35
e 196 51
e 196 52
e 196 53
e 196 69
e 196 70
e 196 71
e 196 87
e 196 88
e 196 89
e 196 105
e 196 106
e 196 107
e 196 123
e 196 124
e 196 125
e 196 141
e 196 142
e 196 143
e 196 159
e 196 160
e 196 161
e 196 177
e 196 178
e 196 179
e 196 195
e 197 16
e 197 17
e 197 18
e 197 34
e 197 35
e 197 36
e 197 52
e 197 53
e 197 54
e 197 70
e 197 71
e 197 72
e 197 88
e 197 89
e 197 90
e 197 106
e 197 107
e 197 108
e 197 124
e 197 125
e 197 126
e 197 142
e 197 143
e 197 144
e 197 160
e 197 161
e 197 162
e 197 178
e 197 179
e 197 180
e 197 196
e 198 1
e 198 17
e 198 18
e 198 19
e 198 35
e 198 36
e 198 37
e 198 53
e 198 54
e 198 55
e 198 71
e 198 72
e 198 73
e 198 89
e 198 90
e 198 91
e 198 107
e 198 108
e 198 109
e 198 125
e 198 126
e 198 127
e 198 143
e 198 144
e 198 145
e 198 161
e 198 162
e 198 163
e 198 179
e 198 180
e 198 181
e 198 197
e 199 1
e 199 2
e 199 18
e 199 19
e 199 20
e 199 36
e 199 37
e 199 38
e 199 54
e 199 55
e 199 56
e 199 72
e 199 73
e 199 74
e 199 90
e 199 91
e 199 92
e 199 108
e 199 109
e 199 110
e 199 126
e 199 127
e 199 128
e 199 144
e 199 145
e 199 146
e 199 162
e 199 163
e 199 164
e 199 180
e 199 181
e 199 182
e 199 198
e 200 1
e 200 2
e 200 3
e 200 19
e 200 20
e 200 21
e 200 37
e 200 38
e 200 39
e 200 55
e 200 56
e 200 57
e 200 73
e 200 74
e 200 75
e 200 91
e 200 92
e 200 93
e 200 109
e 200 110
e 200 111
e 200 127
e 200 128
e 200 129
e 200 145
e 200 146
e 200 147
e 200 163
e 200 164
e 200 165
e 200 181
e 200 182
e 200 183
e 200 199
